NAME: tsp5_21
COMMENT: 5-tsp problem (Padberg/Rinaldi)
TYPE: TSP
DIMENSION: 5
EDGE_WEIGHT_TYPE : EUC_2D
NODE_COORD_SECTION
1.00 14.54 1.54
2.00 9.08 11.61
3.00 5.21 24.17
4.00 0.40 35.13
5.00 13.19 1.89
